14	3

2	1	2	

0	0	0	0	3	2	3	4	
6	1	0	0	2	9	10	
4	0	0	0	3	5	6	7	
3	0	0	0	2	8	11	
1	0	0	0	1	10	
6	1	0	1	1	12	
2	1	0	0	2	8	11	
1	0	0	0	1	13	
4	0	1	1	1	14	
3	0	0	1	1	12	
2	0	0	1	1	12	
3	0	1	0	1	13	
5	0	0	0	1	14	
0	0	0	0	0	
